Welcome to the CBC MILP Solver 
Version: Trunk
Build Date: Apr 16 2020 

Starting solution of the Linear programming relaxation problem using Primal Simplex

Using Python-MIP package version 1.8.1
Machines:  4 Jobs:  4
Order: 
Job  0 : machine 0 ( 10 ) machine 3 ( 1 ) machine 2 ( 6 ) machine 1 ( 7 ) 
Job  1 : machine 0 ( 1 ) machine 3 ( 7 ) machine 1 ( 5 ) machine 2 ( 8 ) 
Job  2 : machine 3 ( 9 ) machine 2 ( 3 ) machine 1 ( 7 ) machine 0 ( 1 ) 
Job  3 : machine 1 ( 7 ) machine 3 ( 3 ) machine 0 ( 9 ) machine 2 ( 10 ) 
K:  44
Job  0 , e: machine  0 ( 0 ) machine  1 ( 17 ) machine  2 ( 11 ) machine  3 ( 10 ) 
Job  1 , e: machine  0 ( 0 ) machine  1 ( 8 ) machine  2 ( 13 ) machine  3 ( 1 ) 
Job  2 , e: machine  0 ( 19 ) machine  1 ( 12 ) machine  2 ( 9 ) machine  3 ( 0 ) 
Job  3 , e: machine  0 ( 10 ) machine  1 ( 0 ) machine  2 ( 19 ) machine  3 ( 7 ) 
Job  0 , f: machine  0 ( 14 ) machine  1 ( 0 ) machine  2 ( 7 ) machine  3 ( 13 ) 
Job  1 , f: machine  0 ( 20 ) machine  1 ( 8 ) machine  2 ( 0 ) machine  3 ( 13 ) 
Job  2 , f: machine  0 ( 0 ) machine  1 ( 1 ) machine  2 ( 8 ) machine  3 ( 11 ) 
Job  3 , f: machine  0 ( 10 ) machine  1 ( 22 ) machine  2 ( 0 ) machine  3 ( 19 ) 
EST and LST:
Job: 0 Machine: 0 EST: 0 LST: 20
Job: 0 Machine: 1 EST: 17 LST: 37
Job: 0 Machine: 2 EST: 11 LST: 31
Job: 0 Machine: 3 EST: 10 LST: 30
Job: 1 Machine: 0 EST: 0 LST: 23
Job: 1 Machine: 1 EST: 8 LST: 31
Job: 1 Machine: 2 EST: 13 LST: 36
Job: 1 Machine: 3 EST: 1 LST: 24
Job: 2 Machine: 0 EST: 19 LST: 43
Job: 2 Machine: 1 EST: 12 LST: 36
Job: 2 Machine: 2 EST: 9 LST: 33
Job: 2 Machine: 3 EST: 0 LST: 24
Job: 3 Machine: 0 EST: 10 LST: 25
Job: 3 Machine: 1 EST: 0 LST: 15
Job: 3 Machine: 2 EST: 19 LST: 34
Job: 3 Machine: 3 EST: 7 LST: 22
Order:
Job: 0 Machine: 0 = 0 
Job: 0 Machine: 1 = 3 
Job: 0 Machine: 2 = 2 
Job: 0 Machine: 3 = 1 
Job: 1 Machine: 0 = 0 
Job: 1 Machine: 1 = 2 
Job: 1 Machine: 2 = 3 
Job: 1 Machine: 3 = 1 
Job: 2 Machine: 0 = 3 
Job: 2 Machine: 1 = 2 
Job: 2 Machine: 2 = 1 
Job: 2 Machine: 3 = 0 
Job: 3 Machine: 0 = 2 
Job: 3 Machine: 1 = 0 
Job: 3 Machine: 2 = 3 
Job: 3 Machine: 3 = 1 
Distances:
Job 0, Machine 0 -> Machine 3: distance 10
Job 0, Machine 0 -> Machine 2: distance 11
Job 0, Machine 0 -> Machine 1: distance 17
Job 0, Machine 3 -> Machine 2: distance 1
Job 0, Machine 3 -> Machine 1: distance 7
Job 0, Machine 2 -> Machine 1: distance 6
Job 1, Machine 0 -> Machine 3: distance 1
Job 1, Machine 0 -> Machine 1: distance 8
Job 1, Machine 0 -> Machine 2: distance 13
Job 1, Machine 3 -> Machine 1: distance 7
Job 1, Machine 3 -> Machine 2: distance 12
Job 1, Machine 1 -> Machine 2: distance 5
Job 2, Machine 3 -> Machine 2: distance 9
Job 2, Machine 3 -> Machine 1: distance 12
Job 2, Machine 3 -> Machine 0: distance 19
Job 2, Machine 2 -> Machine 1: distance 3
Job 2, Machine 2 -> Machine 0: distance 10
Job 2, Machine 1 -> Machine 0: distance 7
Job 3, Machine 1 -> Machine 3: distance 7
Job 3, Machine 1 -> Machine 0: distance 10
Job 3, Machine 1 -> Machine 2: distance 19
Job 3, Machine 3 -> Machine 0: distance 3
Job 3, Machine 3 -> Machine 2: distance 12
Job 3, Machine 0 -> Machine 2: distance 9
McCormic linearization
[(1, 2), (3, 2), (0, 0), (3, 3), (3, 1), (2, 0), (1, 1), (2, 3), (1, 0), (0, 2)]
obj:  0.6000000000000001
solutions:  1
+ x(0,0) + 0.1x(1,0) 
C:  28.999999999999996
x(0,0) = 0.20	 x(0,1) = 19.00	 x(0,2) = 13.00	 x(0,3) = 10.20	 
x(1,0) = 8.00	 x(1,1) = 16.00	 x(1,2) = 21.00	 x(1,3) = 9.00	 
x(2,0) = 20.20	 x(2,1) = 13.20	 x(2,2) = 10.20	 x(2,3) = 1.20	 
x(3,0) = 10.00	 x(3,1) = 0.00	 x(3,2) = 19.00	 x(3,3) = 7.00	 
y(0,1,0) = 0.37	 y(1,0,0) = 0.63	 
y(0,2,0) = 0.48	 y(2,0,0) = 0.52	 
y(0,3,0) = 0.99	 y(3,0,0) = 0.01	 
y(1,2,0) = 0.30	 y(2,1,0) = 0.70	 
y(1,3,0) = 0.96	 y(3,1,0) = 0.04	 
y(2,3,0) = 0.00	 y(3,2,0) = 1.00	 
y(0,1,1) = 0.48	 y(1,0,1) = 0.52	 
y(0,2,1) = 0.05	 y(2,0,1) = 0.95	 
y(0,3,1) = 0.00	 y(3,0,1) = 1.00	 
y(1,2,1) = 0.12	 y(2,1,1) = 0.88	 
y(1,3,1) = 0.38	 y(3,1,1) = 0.62	 
y(2,3,1) = 0.00	 y(3,2,1) = 1.00	 
y(0,1,2) = 0.48	 y(1,0,2) = 0.52	 
y(0,2,2) = 0.44	 y(2,0,2) = 0.56	 
y(0,3,2) = 1.00	 y(3,0,2) = 0.00	 
y(1,2,2) = 0.00	 y(2,1,2) = 1.00	 
y(1,3,2) = 0.26	 y(3,1,2) = 0.74	 
y(2,3,2) = 0.74	 y(3,2,2) = 0.26	 
y(0,1,3) = 0.28	 y(1,0,3) = 0.72	 
y(0,2,3) = 0.00	 y(2,0,3) = 1.00	 
y(0,3,3) = 0.01	 y(3,0,3) = 0.99	 
y(1,2,3) = 0.04	 y(2,1,3) = 0.96	 
y(1,3,3) = 0.04	 y(3,1,3) = 0.96	 
y(2,3,3) = 0.35	 y(3,2,3) = 0.65	 
obj:  0.8044444444444443
solutions:  1
+ 0.1111111111111111x(3,3) + 0.022222222222222216x(2,3) 
[(1, 2), (0, 1), (0, 0), (3, 3), (0, 2), (3, 1), (2, 0), (2, 3), (2, 2), (1, 0), (1, 1)]
cliques:  1 mip: 72
C:  29.699716713880658
x(0,0) = 5.70	 x(0,1) = 22.70	 x(0,2) = 16.70	 x(0,3) = 15.70	 
x(1,0) = -0.00	 x(1,1) = 8.00	 x(1,2) = 13.00	 x(1,3) = 1.00	 
x(2,0) = 28.56	 x(2,1) = 21.56	 x(2,2) = 18.56	 x(2,3) = 9.56	 
x(3,0) = 10.09	 x(3,1) = 0.00	 x(3,2) = 19.09	 x(3,3) = 7.09	 
y(0,1,0) = 0.00	 y(1,0,0) = 1.00	 
y(0,2,0) = 0.83	 y(2,0,0) = 0.17	 
y(0,3,0) = 0.39	 y(3,0,0) = 0.61	 
y(1,2,0) = 0.67	 y(2,1,0) = 0.33	 
y(1,3,0) = 0.62	 y(3,1,0) = 0.38	 
y(2,3,0) = 0.00	 y(3,2,0) = 1.00	 
y(0,1,1) = 0.13	 y(1,0,1) = 0.87	 
y(0,2,1) = 0.23	 y(2,0,1) = 0.77	 
y(0,3,1) = 0.00	 y(3,0,1) = 1.00	 
y(1,2,1) = 0.59	 y(2,1,1) = 0.41	 
y(1,3,1) = 0.04	 y(3,1,1) = 0.96	 
y(2,3,1) = 0.00	 y(3,2,1) = 1.00	 
y(0,1,2) = 0.13	 y(1,0,2) = 0.87	 
y(0,2,2) = 0.29	 y(2,0,2) = 0.71	 
y(0,3,2) = 0.71	 y(3,0,2) = 0.29	 
y(1,2,2) = 0.37	 y(2,1,2) = 0.63	 
y(1,3,2) = 0.92	 y(3,1,2) = 0.08	 
y(2,3,2) = 0.85	 y(3,2,2) = 0.15	 
y(0,1,3) = 0.00	 y(1,0,3) = 1.00	 
y(0,2,3) = 0.28	 y(2,0,3) = 0.72	 
y(0,3,3) = 0.26	 y(3,0,3) = 0.74	 
y(1,2,3) = 0.55	 y(2,1,3) = 0.45	 
y(1,3,3) = 0.39	 y(3,1,3) = 0.61	 
y(2,3,3) = 0.02	 y(3,2,3) = 0.98	 
obj:  0.8810569518782332
solutions:  1
+ 0.06306306306306304x(1,3) + 0.027027027027027056x(3,3) + 0.06552006552006549x(2,3) 
[(1, 2), (0, 0), (1, 3), (3, 3), (3, 0), (2, 1), (2, 0), (2, 3), (2, 2), (1, 0), (1, 1)]
cliques:  1 mip: 121
C:  31.000000000000004
x(0,0) = 2.22	 x(0,1) = 22.18	 x(0,2) = 13.68	 x(0,3) = 12.68	 
x(1,0) = -0.00	 x(1,1) = 8.00	 x(1,2) = 13.00	 x(1,3) = 1.00	 
x(2,0) = 30.00	 x(2,1) = 23.00	 x(2,2) = 20.00	 x(2,3) = 11.00	 
x(3,0) = 11.00	 x(3,1) = 1.00	 x(3,2) = 21.00	 x(3,3) = 8.00	 
y(0,1,0) = 0.00	 y(1,0,0) = 1.00	 
y(0,2,0) = 1.00	 y(2,0,0) = 0.00	 
y(0,3,0) = 0.94	 y(3,0,0) = 0.06	 
y(1,2,0) = 0.83	 y(2,1,0) = 0.17	 
y(1,3,0) = 0.59	 y(3,1,0) = 0.41	 
y(2,3,0) = 0.00	 y(3,2,0) = 1.00	 
y(0,1,1) = 0.00	 y(1,0,1) = 1.00	 
y(0,2,1) = 0.30	 y(2,0,1) = 0.70	 
y(0,3,1) = 0.00	 y(3,0,1) = 1.00	 
y(1,2,1) = 0.67	 y(2,1,1) = 0.33	 
y(1,3,1) = 0.00	 y(3,1,1) = 1.00	 
y(2,3,1) = 0.00	 y(3,2,1) = 1.00	 
y(0,1,2) = 0.72	 y(1,0,2) = 0.28	 
y(0,2,2) = 0.37	 y(2,0,2) = 0.63	 
y(0,3,2) = 1.00	 y(3,0,2) = 0.00	 
y(1,2,2) = 0.43	 y(2,1,2) = 0.57	 
y(1,3,2) = 1.00	 y(3,1,2) = -0.00	 
y(2,3,2) = 0.88	 y(3,2,2) = 0.12	 
y(0,1,3) = 0.00	 y(1,0,3) = 1.00	 
y(0,2,3) = 0.32	 y(2,0,3) = 0.68	 
y(0,3,3) = 0.08	 y(3,0,3) = 0.92	 
y(1,2,3) = 0.62	 y(2,1,3) = 0.38	 
y(1,3,3) = 0.42	 y(3,1,3) = 0.58	 
y(2,3,3) = 0.00	 y(3,2,3) = 1.00	 
obj:  0.8630147285868386
solutions:  1
+ 0.040194884287454324x(1,2) + 0.005052555600667662x(1,3) + 0.006947263950918032x(3,3) + 0.003473631975459017x(2,2) + 0.01538322731988993x(0,2) 
[(1, 2), (1, 3), (3, 3), (3, 0), (2, 1), (1, 1), (2, 3), (2, 2), (1, 0), (0, 2), (0, 3)]
cliques:  1 mip: 62
C:  31.495995921212703
x(0,0) = 0.63	 x(0,1) = 19.91	 x(0,2) = 11.63	 x(0,3) = 10.63	 
x(1,0) = 3.74	 x(1,1) = 11.74	 x(1,2) = 16.74	 x(1,3) = 4.74	 
x(2,0) = 30.50	 x(2,1) = 23.50	 x(2,2) = 20.50	 x(2,3) = 10.67	 
x(3,0) = 10.67	 x(3,1) = 0.67	 x(3,2) = 19.67	 x(3,3) = 7.67	 
y(0,1,0) = 0.17	 y(1,0,0) = 0.83	 
y(0,2,0) = 1.00	 y(2,0,0) = 0.00	 
y(0,3,0) = 0.87	 y(3,0,0) = 0.13	 
y(1,2,0) = 0.85	 y(2,1,0) = 0.15	 
y(1,3,0) = 0.72	 y(3,1,0) = 0.28	 
y(2,3,0) = 0.00	 y(3,2,0) = 1.00	 
y(0,1,1) = 0.00	 y(1,0,1) = 1.00	 
y(0,2,1) = 0.41	 y(2,0,1) = 0.59	 
y(0,3,1) = 0.00	 y(3,0,1) = 1.00	 
y(1,2,1) = 0.75	 y(2,1,1) = 0.25	 
y(1,3,1) = 0.13	 y(3,1,1) = 0.87	 
y(2,3,1) = 0.00	 y(3,2,1) = 1.00	 
y(0,1,2) = 0.96	 y(1,0,2) = 0.04	 
y(0,2,2) = 0.47	 y(2,0,2) = 0.53	 
y(0,3,2) = 1.00	 y(3,0,2) = 0.00	 
y(1,2,2) = 0.29	 y(2,1,2) = 0.71	 
y(1,3,2) = 0.77	 y(3,1,2) = 0.23	 
y(2,3,2) = 0.78	 y(3,2,2) = 0.22	 
y(0,1,3) = 0.05	 y(1,0,3) = 0.95	 
y(0,2,3) = 0.97	 y(2,0,3) = 0.03	 
y(0,3,3) = 0.00	 y(3,0,3) = 1.00	 
y(1,2,3) = 0.97	 y(2,1,3) = 0.03	 
y(1,3,3) = 0.44	 y(3,1,3) = 0.56	 
y(2,3,3) = 0.00	 y(3,2,3) = 1.00	 
obj:  0.8289114319607025
solutions:  1
+ 0.01493039964077233x(1,2) + 0.02346205657835654x(3,2) + 0.010103277952402338x(0,2) 
[(0, 1), (1, 2), (3, 2), (1, 3), (3, 3), (3, 0), (2, 1), (1, 1), (2, 2), (1, 0), (0, 2)]
cliques:  1 mip: 111
C:  33.02274412855373
x(0,0) = 0.36	 x(0,1) = 26.02	 x(0,2) = 20.02	 x(0,3) = 14.35	 
x(1,0) = 6.35	 x(1,1) = 15.47	 x(1,2) = 23.57	 x(1,3) = 7.35	 
x(2,0) = 32.02	 x(2,1) = 25.02	 x(2,2) = 22.02	 x(2,3) = 10.00	 
x(3,0) = 10.00	 x(3,1) = -0.00	 x(3,2) = 19.00	 x(3,3) = 7.00	 
y(0,1,0) = 0.29	 y(1,0,0) = 0.71	 
y(0,2,0) = 1.00	 y(2,0,0) = 0.00	 
y(0,3,0) = 0.73	 y(3,0,0) = 0.27	 
y(1,2,0) = 0.65	 y(2,1,0) = 0.35	 
y(1,3,0) = 0.38	 y(3,1,0) = 0.62	 
y(2,3,0) = 0.00	 y(3,2,0) = 1.00	 
y(0,1,1) = 0.00	 y(1,0,1) = 1.00	 
y(0,2,1) = 0.23	 y(2,0,1) = 0.77	 
y(0,3,1) = 0.00	 y(3,0,1) = 1.00	 
y(1,2,1) = 1.00	 y(2,1,1) = 0.00	 
y(1,3,1) = 0.43	 y(3,1,1) = 0.57	 
y(2,3,1) = 0.00	 y(3,2,1) = 1.00	 
y(0,1,2) = 0.69	 y(1,0,2) = 0.31	 
y(0,2,2) = 0.41	 y(2,0,2) = 0.59	 
y(0,3,2) = 0.61	 y(3,0,2) = 0.39	 
y(1,2,2) = 0.06	 y(2,1,2) = 0.94	 
y(1,3,2) = 0.50	 y(3,1,2) = 0.50	 
y(2,3,2) = 0.65	 y(3,2,2) = 0.35	 
y(0,1,3) = 0.00	 y(1,0,3) = 1.00	 
y(0,2,3) = 0.83	 y(2,0,3) = 0.17	 
y(0,3,3) = 0.22	 y(3,0,3) = 0.78	 
y(1,2,3) = 0.86	 y(2,1,3) = 0.14	 
y(1,3,3) = 0.11	 y(3,1,3) = 0.89	 
y(2,3,3) = 0.00	 y(3,2,3) = 1.00	 
obj:  0.9700059414460163
solutions:  1
+ 0.0055248618784530384x(1,2) + 0.04419889502762431x(3,2) 
[(1, 2), (3, 2), (3, 0), (3, 1), (2, 0), (1, 1), (2, 2), (1, 0), (0, 2)]
cliques:  1 mip: 101
C:  34.0
x(0,0) = 0.83	 x(0,1) = 27.00	 x(0,2) = 21.00	 x(0,3) = 10.83	 
x(1,0) = 1.73	 x(1,1) = 11.81	 x(1,2) = 16.81	 x(1,3) = 2.73	 
x(2,0) = 33.00	 x(2,1) = 21.73	 x(2,2) = 18.73	 x(2,3) = 9.73	 
x(3,0) = 10.05	 x(3,1) = 0.05	 x(3,2) = 23.62	 x(3,3) = 7.05	 
y(0,1,0) = 0.08	 y(1,0,0) = 0.92	 
y(0,2,0) = 1.00	 y(2,0,0) = 0.00	 
y(0,3,0) = 0.65	 y(3,0,0) = 0.35	 
y(1,2,0) = 0.73	 y(2,1,0) = 0.27	 
y(1,3,0) = 0.65	 y(3,1,0) = 0.35	 
y(2,3,0) = 0.00	 y(3,2,0) = 1.00	 
y(0,1,1) = 0.00	 y(1,0,1) = 1.00	 
y(0,2,1) = 0.29	 y(2,0,1) = 0.71	 
y(0,3,1) = 0.00	 y(3,0,1) = 1.00	 
y(1,2,1) = 1.00	 y(2,1,1) = 0.00	 
y(1,3,1) = 0.30	 y(3,1,1) = 0.70	 
y(2,3,1) = 0.00	 y(3,2,1) = 1.00	 
y(0,1,2) = 0.32	 y(1,0,2) = 0.68	 
y(0,2,2) = 0.19	 y(2,0,2) = 0.81	 
y(0,3,2) = 0.56	 y(3,0,2) = 0.44	 
y(1,2,2) = 0.21	 y(2,1,2) = 0.79	 
y(1,3,2) = 0.95	 y(3,1,2) = 0.05	 
y(2,3,2) = 1.00	 y(3,2,2) = 0.00	 
y(0,1,3) = 0.00	 y(1,0,3) = 1.00	 
y(0,2,3) = 0.93	 y(2,0,3) = 0.07	 
y(0,3,3) = 0.04	 y(3,0,3) = 0.96	 
y(1,2,3) = 1.00	 y(2,1,3) = 0.00	 
y(1,3,3) = 0.31	 y(3,1,3) = 0.69	 
y(2,3,3) = 0.01	 y(3,2,3) = 0.99	 
obj:  0.9070970562518217
solutions:  1
+ 0.013698630136986314x(1,3) + 0.12328767123287669x(3,3) 
[(1, 2), (0, 1), (3, 2), (0, 0), (1, 3), (3, 3), (3, 0), (3, 1), (2, 1), (1, 1), (1, 0), (0, 2)]
cliques:  1 mip: 94
C:  34.0
x(0,0) = 0.67	 x(0,1) = 27.00	 x(0,2) = 21.00	 x(0,3) = 11.27	 
x(1,0) = 3.27	 x(1,1) = 11.51	 x(1,2) = 16.51	 x(1,3) = 4.27	 
x(2,0) = 33.00	 x(2,1) = 20.00	 x(2,2) = 16.74	 x(2,3) = 7.74	 
x(3,0) = 11.59	 x(3,1) = 0.00	 x(3,2) = 23.76	 x(3,3) = 8.27	 
y(0,1,0) = 0.19	 y(1,0,0) = 0.81	 
y(0,2,0) = 1.00	 y(2,0,0) = 0.00	 
y(0,3,0) = 0.71	 y(3,0,0) = 0.29	 
y(1,2,0) = 0.81	 y(2,1,0) = 0.19	 
y(1,3,0) = 0.63	 y(3,1,0) = 0.37	 
y(2,3,0) = 0.00	 y(3,2,0) = 1.00	 
y(0,1,1) = 0.00	 y(1,0,1) = 1.00	 
y(0,2,1) = 0.00	 y(2,0,1) = 1.00	 
y(0,3,1) = 0.00	 y(3,0,1) = 1.00	 
y(1,2,1) = 1.00	 y(2,1,1) = 0.00	 
y(1,3,1) = 0.37	 y(3,1,1) = 0.63	 
y(2,3,1) = 0.00	 y(3,2,1) = 1.00	 
y(0,1,2) = 0.25	 y(1,0,2) = 0.75	 
y(0,2,2) = 0.07	 y(2,0,2) = 0.93	 
y(0,3,2) = 0.58	 y(3,0,2) = 0.42	 
y(1,2,2) = 0.14	 y(2,1,2) = 0.86	 
y(1,3,2) = 0.97	 y(3,1,2) = 0.03	 
y(2,3,2) = 1.00	 y(3,2,2) = 0.00	 
y(0,1,3) = 0.00	 y(1,0,3) = 1.00	 
y(0,2,3) = 0.85	 y(2,0,3) = 0.15	 
y(0,3,3) = 0.00	 y(3,0,3) = 1.00	 
y(1,2,3) = 0.58	 y(2,1,3) = 0.42	 
y(1,3,3) = 0.53	 y(3,1,3) = 0.47	 
y(2,3,3) = 0.14	 y(3,2,3) = 0.86	 
obj:  0.9795575121421414
solutions:  1
+ 0.07017543859649124x(1,3) + 0.6759545923632612x(0,0) + 0.017543859649122806x(3,3) + 0.010319917440660475x(2,3) 
[(1, 2), (3, 2), (1, 3), (0, 0), (3, 3), (3, 0), (3, 1), (1, 1), (2, 3), (1, 0), (0, 2)]
cliques:  1 mip: 82
C:  34.0
x(0,0) = 0.62	 x(0,1) = 26.74	 x(0,2) = 20.74	 x(0,3) = 19.74	 
x(1,0) = 3.77	 x(1,1) = 12.51	 x(1,2) = 17.51	 x(1,3) = 5.51	 
x(2,0) = 33.00	 x(2,1) = 20.08	 x(2,2) = 17.08	 x(2,3) = 8.08	 
x(3,0) = 12.45	 x(3,1) = 0.50	 x(3,2) = 23.29	 x(3,3) = 7.50	 
y(0,1,0) = 0.23	 y(1,0,0) = 0.77	 
y(0,2,0) = 1.00	 y(2,0,0) = 0.00	 
y(0,3,0) = 0.98	 y(3,0,0) = 0.02	 
y(1,2,0) = 0.90	 y(2,1,0) = 0.10	 
y(1,3,0) = 0.64	 y(3,1,0) = 0.36	 
y(2,3,0) = 0.00	 y(3,2,0) = 1.00	 
y(0,1,1) = 0.00	 y(1,0,1) = 1.00	 
y(0,2,1) = 0.01	 y(2,0,1) = 0.99	 
y(0,3,1) = 0.00	 y(3,0,1) = 1.00	 
y(1,2,1) = 1.00	 y(2,1,1) = 0.00	 
y(1,3,1) = 0.24	 y(3,1,1) = 0.76	 
y(2,3,1) = 0.00	 y(3,2,1) = 1.00	 
y(0,1,2) = 0.34	 y(1,0,2) = 0.66	 
y(0,2,2) = 0.03	 y(2,0,2) = 0.97	 
y(0,3,2) = 0.42	 y(3,0,2) = 0.58	 
y(1,2,2) = 0.11	 y(2,1,2) = 0.89	 
y(1,3,2) = 0.91	 y(3,1,2) = 0.09	 
y(2,3,2) = 1.00	 y(3,2,2) = 0.00	 
y(0,1,3) = 0.00	 y(1,0,3) = 1.00	 
y(0,2,3) = 0.59	 y(2,0,3) = 0.41	 
y(0,3,3) = 0.00	 y(3,0,3) = 1.00	 
y(1,2,3) = 0.82	 y(2,1,3) = 0.18	 
y(1,3,3) = 0.63	 y(3,1,3) = 0.37	 
y(2,3,3) = 0.10	 y(3,2,3) = 0.90	 
obj:  0.9317554101434865
solutions:  1
+ 8.420853190318471e-05x(1,2) + 0.0005789336568344431x(3,2) + 0.006410374491130477x(1,3) + 0.09989500248678322x(3,3) + 0.015491738353565302x(2,3) + 0.00034736019410067115x(0,2) 
[(1, 2), (3, 2), (1, 3), (0, 0), (3, 3), (3, 0), (1, 0), (3, 1), (1, 1), (2, 3), (0, 3), (0, 2)]
cliques:  1 mip: 102
C:  33.999999999999886
x(0,0) = 0.72	 x(0,1) = 27.00	 x(0,2) = 21.00	 x(0,3) = 13.09	 
x(1,0) = 2.78	 x(1,1) = 10.78	 x(1,2) = 16.00	 x(1,3) = 3.78	 
x(2,0) = 33.00	 x(2,1) = 21.60	 x(2,2) = 18.60	 x(2,3) = 9.60	 
x(3,0) = 12.71	 x(3,1) = 0.81	 x(3,2) = 24.00	 x(3,3) = 9.71	 
y(0,1,0) = 0.64	 y(1,0,0) = 0.36	 
y(0,2,0) = 1.00	 y(2,0,0) = 0.00	 
y(0,3,0) = 0.77	 y(3,0,0) = 0.23	 
y(1,2,0) = 0.96	 y(2,1,0) = 0.04	 
y(1,3,0) = 0.84	 y(3,1,0) = 0.16	 
y(2,3,0) = 0.00	 y(3,2,0) = 1.00	 
y(0,1,1) = 0.00	 y(1,0,1) = 1.00	 
y(0,2,1) = 0.27	 y(2,0,1) = 0.73	 
y(0,3,1) = 0.00	 y(3,0,1) = 1.00	 
y(1,2,1) = 1.00	 y(2,1,1) = 0.00	 
y(1,3,1) = 0.19	 y(3,1,1) = 0.81	 
y(2,3,1) = 0.00	 y(3,2,1) = 1.00	 
y(0,1,2) = 0.38	 y(1,0,2) = 0.62	 
y(0,2,2) = 0.05	 y(2,0,2) = 0.95	 
y(0,3,2) = 0.39	 y(3,0,2) = 0.61	 
y(1,2,2) = 0.77	 y(2,1,2) = 0.23	 
y(1,3,2) = 1.00	 y(3,1,2) = 0.00	 
y(2,3,2) = 1.00	 y(3,2,2) = 0.00	 
y(0,1,3) = 0.00	 y(1,0,3) = 1.00	 
y(0,2,3) = 0.86	 y(2,0,3) = 0.14	 
y(0,3,3) = 0.00	 y(3,0,3) = 1.00	 
y(1,2,3) = 0.83	 y(2,1,3) = 0.17	 
y(1,3,3) = 0.69	 y(3,1,3) = 0.31	 
y(2,3,3) = 0.12	 y(3,2,3) = 0.88	 
obj:  1.0
erro
[(1, 2), (0, 1), (3, 2), (0, 0), (1, 3), (3, 3), (3, 0), (2, 1), (2, 2), (1, 0), (0, 2)]
cliques:  0 mip: 96
C:  34.27800086802151
x(0,0) = 0.53	 x(0,1) = 26.49	 x(0,2) = 17.94	 x(0,3) = 12.74	 
x(1,0) = 4.74	 x(1,1) = 12.74	 x(1,2) = 17.85	 x(1,3) = 5.74	 
x(2,0) = 33.28	 x(2,1) = 20.51	 x(2,2) = 17.12	 x(2,3) = 6.86	 
x(3,0) = 14.54	 x(3,1) = 1.17	 x(3,2) = 23.54	 x(3,3) = 9.74	 
y(0,1,0) = 0.29	 y(1,0,0) = 0.71	 
y(0,2,0) = 1.00	 y(2,0,0) = 0.00	 
y(0,3,0) = 0.90	 y(3,0,0) = 0.10	 
y(1,2,0) = 0.88	 y(2,1,0) = 0.12	 
y(1,3,0) = 0.72	 y(3,1,0) = 0.28	 
y(2,3,0) = 0.00	 y(3,2,0) = 1.00	 
y(0,1,1) = 0.00	 y(1,0,1) = 1.00	 
y(0,2,1) = 0.04	 y(2,0,1) = 0.96	 
y(0,3,1) = 0.00	 y(3,0,1) = 1.00	 
y(1,2,1) = 1.00	 y(2,1,1) = 0.00	 
y(1,3,1) = 0.19	 y(3,1,1) = 0.81	 
y(2,3,1) = 0.00	 y(3,2,1) = 1.00	 
y(0,1,2) = 0.41	 y(1,0,2) = 0.59	 
y(0,2,2) = 0.09	 y(2,0,2) = 0.91	 
y(0,3,2) = 0.94	 y(3,0,2) = 0.06	 
y(1,2,2) = 0.10	 y(2,1,2) = 0.90	 
y(1,3,2) = 0.91	 y(3,1,2) = 0.09	 
y(2,3,2) = 1.00	 y(3,2,2) = 0.00	 
y(0,1,3) = 0.00	 y(1,0,3) = 1.00	 
y(0,2,3) = 0.63	 y(2,0,3) = 0.37	 
y(0,3,3) = 0.00	 y(3,0,3) = 1.00	 
y(1,2,3) = 0.68	 y(2,1,3) = 0.32	 
y(1,3,3) = 0.45	 y(3,1,3) = 0.55	 
y(2,3,3) = 0.54	 y(3,2,3) = 0.46	 
obj:  0.9787626736715619
solutions:  1
+ 0.05882352941176472x(1,3) + 0.6196700902583256x(0,0) + 0.014939309056956123x(3,3) + 0.009129577757028738x(2,3) + 0.0084033613445378x(0,3) 
[(1, 2), (1, 3), (0, 0), (3, 3), (3, 0), (1, 0), (2, 3), (0, 3), (0, 2)]
cliques:  1 mip: 113
C:  35.0
x(0,0) = 0.49	 x(0,1) = 28.00	 x(0,2) = 18.75	 x(0,3) = 17.75	 
x(1,0) = 5.09	 x(1,1) = 13.42	 x(1,2) = 18.42	 x(1,3) = 6.42	 
x(2,0) = 34.00	 x(2,1) = 21.00	 x(2,2) = 16.52	 x(2,3) = 7.52	 
x(3,0) = 11.22	 x(3,1) = 1.22	 x(3,2) = 23.54	 x(3,3) = 8.22	 
y(0,1,0) = 0.26	 y(1,0,0) = 0.74	 
y(0,2,0) = 1.00	 y(2,0,0) = 0.00	 
y(0,3,0) = 0.73	 y(3,0,0) = 0.27	 
y(1,2,0) = 0.86	 y(2,1,0) = 0.14	 
y(1,3,0) = 0.44	 y(3,1,0) = 0.56	 
y(2,3,0) = 0.00	 y(3,2,0) = 1.00	 
y(0,1,1) = 0.00	 y(1,0,1) = 1.00	 
y(0,2,1) = 0.00	 y(2,0,1) = 1.00	 
y(0,3,1) = 0.00	 y(3,0,1) = 1.00	 
y(1,2,1) = 1.00	 y(2,1,1) = 0.00	 
y(1,3,1) = 0.18	 y(3,1,1) = 0.82	 
y(2,3,1) = 0.00	 y(3,2,1) = 1.00	 
y(0,1,2) = 0.74	 y(1,0,2) = 0.26	 
y(0,2,2) = 0.03	 y(2,0,2) = 0.97	 
y(0,3,2) = 0.93	 y(3,0,2) = 0.07	 
y(1,2,2) = 0.72	 y(2,1,2) = 0.28	 
y(1,3,2) = 0.88	 y(3,1,2) = 0.12	 
y(2,3,2) = 1.00	 y(3,2,2) = 0.00	 
y(0,1,3) = 0.00	 y(1,0,3) = 1.00	 
y(0,2,3) = 0.64	 y(2,0,3) = 0.36	 
y(0,3,3) = 0.00	 y(3,0,3) = 1.00	 
y(1,2,3) = 0.66	 y(2,1,3) = 0.34	 
y(1,3,3) = 0.44	 y(3,1,3) = 0.56	 
y(2,3,3) = 0.68	 y(3,2,3) = 0.32	 
obj:  0.992933629165316
solutions:  1
+ 0.009210526315789487x(1,3) + 0.0657894736842106x(0,0) + 0.09605263157894736x(3,3) + 0.01184210526315789x(2,3) + 0.001315789473684209x(0,3) 
[(1, 2), (1, 3), (0, 0), (3, 3), (3, 0), (2, 3), (2, 2), (1, 0), (0, 3)]
cliques:  1 mip: 93
C:  35.0
x(0,0) = 0.93	 x(0,1) = 28.00	 x(0,2) = 17.03	 x(0,3) = 16.03	 
x(1,0) = 3.27	 x(1,1) = 11.27	 x(1,2) = 17.00	 x(1,3) = 4.27	 
x(2,0) = 34.00	 x(2,1) = 21.00	 x(2,2) = 16.72	 x(2,3) = 7.72	 
x(3,0) = 11.32	 x(3,1) = 1.32	 x(3,2) = 25.00	 x(3,3) = 8.32	 
y(0,1,0) = 0.14	 y(1,0,0) = 0.86	 
y(0,2,0) = 1.00	 y(2,0,0) = 0.00	 
y(0,3,0) = 0.60	 y(3,0,0) = 0.40	 
y(1,2,0) = 0.88	 y(2,1,0) = 0.12	 
y(1,3,0) = 0.56	 y(3,1,0) = 0.44	 
y(2,3,0) = 0.00	 y(3,2,0) = 1.00	 
y(0,1,1) = 0.00	 y(1,0,1) = 1.00	 
y(0,2,1) = 0.00	 y(2,0,1) = 1.00	 
y(0,3,1) = 0.00	 y(3,0,1) = 1.00	 
y(1,2,1) = 1.00	 y(2,1,1) = 0.00	 
y(1,3,1) = 0.06	 y(3,1,1) = 0.94	 
y(2,3,1) = 0.00	 y(3,2,1) = 1.00	 
y(0,1,2) = 0.75	 y(1,0,2) = 0.25	 
y(0,2,2) = 0.11	 y(2,0,2) = 0.89	 
y(0,3,2) = 1.00	 y(3,0,2) = 0.00	 
y(1,2,2) = 0.76	 y(2,1,2) = 0.24	 
y(1,3,2) = 1.00	 y(3,1,2) = 0.00	 
y(2,3,2) = 1.00	 y(3,2,2) = 0.00	 
y(0,1,3) = 0.00	 y(1,0,3) = 1.00	 
y(0,2,3) = 0.53	 y(2,0,3) = 0.47	 
y(0,3,3) = 0.00	 y(3,0,3) = 1.00	 
y(1,2,3) = 0.39	 y(2,1,3) = 0.61	 
y(1,3,3) = 0.84	 y(3,1,3) = 0.16	 
y(2,3,3) = 0.68	 y(3,2,3) = 0.32	 
obj:  0.976750783722867
solutions:  1
+ 0.05546751188589544x(1,3) + 0.023771790808240864x(3,3) + 0.057052297939778125x(2,3) + 0.006339144215530915x(0,3) 
[(1, 2), (0, 0), (1, 3), (3, 3), (3, 0), (2, 3), (2, 2), (1, 0), (0, 2), (0, 3)]
cliques:  1 mip: 0
C:  35.0
x(0,0) = 0.91	 x(0,1) = 28.00	 x(0,2) = 17.03	 x(0,3) = 16.03	 
x(1,0) = 3.26	 x(1,1) = 11.26	 x(1,2) = 17.00	 x(1,3) = 4.26	 
x(2,0) = 34.00	 x(2,1) = 21.00	 x(2,2) = 17.17	 x(2,3) = 8.17	 
x(3,0) = 11.25	 x(3,1) = 1.25	 x(3,2) = 25.00	 x(3,3) = 8.25	 
y(0,1,0) = 0.14	 y(1,0,0) = 0.86	 
y(0,2,0) = 1.00	 y(2,0,0) = 0.00	 
y(0,3,0) = 0.59	 y(3,0,0) = 0.41	 
y(1,2,0) = 0.87	 y(2,1,0) = 0.13	 
y(1,3,0) = 0.56	 y(3,1,0) = 0.44	 
y(2,3,0) = 0.00	 y(3,2,0) = 1.00	 
y(0,1,1) = 0.00	 y(1,0,1) = 1.00	 
y(0,2,1) = 0.00	 y(2,0,1) = 1.00	 
y(0,3,1) = 0.00	 y(3,0,1) = 1.00	 
y(1,2,1) = 1.00	 y(2,1,1) = 0.00	 
y(1,3,1) = 0.06	 y(3,1,1) = 0.94	 
y(2,3,1) = 0.00	 y(3,2,1) = 1.00	 
y(0,1,2) = 0.75	 y(1,0,2) = 0.25	 
y(0,2,2) = 0.13	 y(2,0,2) = 0.87	 
y(0,3,2) = 1.00	 y(3,0,2) = 0.00	 
y(1,2,2) = 0.78	 y(2,1,2) = 0.22	 
y(1,3,2) = 1.00	 y(3,1,2) = 0.00	 
y(2,3,2) = 1.00	 y(3,2,2) = 0.00	 
y(0,1,3) = 0.00	 y(1,0,3) = 1.00	 
y(0,2,3) = 0.54	 y(2,0,3) = 0.46	 
y(0,3,3) = 0.00	 y(3,0,3) = 1.00	 
y(1,2,3) = 0.40	 y(2,1,3) = 0.60	 
y(1,3,3) = 0.83	 y(3,1,3) = 0.17	 
y(2,3,3) = 0.66	 y(3,2,3) = 0.34	 
obj:  0.9972638169763391
solutions:  1
+ 0.02258064516129016x(1,3) + 0.07419354838709702x(3,3) + 0.029032258064515988x(2,3) + 0.0032258064516128885x(0,3) 
[(1, 2), (0, 0), (1, 3), (3, 3), (3, 0), (2, 3), (2, 2), (1, 0), (0, 2), (0, 3)]
cliques:  1 mip: 0
C:  35.0
x(0,0) = 0.93	 x(0,1) = 28.00	 x(0,2) = 17.29	 x(0,3) = 16.29	 
x(1,0) = 3.20	 x(1,1) = 11.20	 x(1,2) = 16.78	 x(1,3) = 4.20	 
x(2,0) = 34.00	 x(2,1) = 21.00	 x(2,2) = 17.33	 x(2,3) = 8.33	 
x(3,0) = 11.23	 x(3,1) = 1.23	 x(3,2) = 25.00	 x(3,3) = 8.23	 
y(0,1,0) = 0.14	 y(1,0,0) = 0.86	 
y(0,2,0) = 1.00	 y(2,0,0) = 0.00	 
y(0,3,0) = 0.59	 y(3,0,0) = 0.41	 
y(1,2,0) = 0.87	 y(2,1,0) = 0.13	 
y(1,3,0) = 0.56	 y(3,1,0) = 0.44	 
y(2,3,0) = 0.00	 y(3,2,0) = 1.00	 
y(0,1,1) = 0.00	 y(1,0,1) = 1.00	 
y(0,2,1) = 0.00	 y(2,0,1) = 1.00	 
y(0,3,1) = 0.00	 y(3,0,1) = 1.00	 
y(1,2,1) = 1.00	 y(2,1,1) = 0.00	 
y(1,3,1) = 0.06	 y(3,1,1) = 0.94	 
y(2,3,1) = 0.00	 y(3,2,1) = 1.00	 
y(0,1,2) = 0.73	 y(1,0,2) = 0.27	 
y(0,2,2) = 0.12	 y(2,0,2) = 0.88	 
y(0,3,2) = 1.00	 y(3,0,2) = 0.00	 
y(1,2,2) = 0.79	 y(2,1,2) = 0.21	 
y(1,3,2) = 1.00	 y(3,1,2) = 0.00	 
y(2,3,2) = 1.00	 y(3,2,2) = 0.00	 
y(0,1,3) = 0.00	 y(1,0,3) = 1.00	 
y(0,2,3) = 0.53	 y(2,0,3) = 0.47	 
y(0,3,3) = 0.00	 y(3,0,3) = 1.00	 
y(1,2,3) = 0.41	 y(2,1,3) = 0.59	 
y(1,3,3) = 0.84	 y(3,1,3) = 0.16	 
y(2,3,3) = 0.65	 y(3,2,3) = 0.35	 
obj:  0.9976128414276415
solutions:  1
+ 0.006122448979591833x(1,3) + 0.1001046572475144x(3,3) + 0.014599686028257449x(2,3) + 0.001622187336473057x(0,3) 
[(1, 2), (1, 3), (0, 0), (3, 3), (3, 0), (2, 3), (2, 2), (1, 0), (0, 2), (0, 3)]
cliques:  1 mip: 0
C:  35.0
x(0,0) = 1.02	 x(0,1) = 28.00	 x(0,2) = 18.13	 x(0,3) = 17.13	 
x(1,0) = 2.62	 x(1,1) = 11.04	 x(1,2) = 16.04	 x(1,3) = 3.62	 
x(2,0) = 34.00	 x(2,1) = 21.00	 x(2,2) = 17.72	 x(2,3) = 8.72	 
x(3,0) = 11.22	 x(3,1) = 1.22	 x(3,2) = 25.00	 x(3,3) = 8.22	 
y(0,1,0) = 0.11	 y(1,0,0) = 0.89	 
y(0,2,0) = 1.00	 y(2,0,0) = 0.00	 
y(0,3,0) = 0.59	 y(3,0,0) = 0.41	 
y(1,2,0) = 0.89	 y(2,1,0) = 0.11	 
y(1,3,0) = 0.56	 y(3,1,0) = 0.44	 
y(2,3,0) = 0.00	 y(3,2,0) = 1.00	 
y(0,1,1) = 0.00	 y(1,0,1) = 1.00	 
y(0,2,1) = 0.00	 y(2,0,1) = 1.00	 
y(0,3,1) = 0.00	 y(3,0,1) = 1.00	 
y(1,2,1) = 1.00	 y(2,1,1) = 0.00	 
y(1,3,1) = 0.05	 y(3,1,1) = 0.95	 
y(2,3,1) = 0.00	 y(3,2,1) = 1.00	 
y(0,1,2) = 0.66	 y(1,0,2) = 0.34	 
y(0,2,2) = 0.11	 y(2,0,2) = 0.89	 
y(0,3,2) = 1.00	 y(3,0,2) = 0.00	 
y(1,2,2) = 0.82	 y(2,1,2) = 0.18	 
y(1,3,2) = 1.00	 y(3,1,2) = 0.00	 
y(2,3,2) = 1.00	 y(3,2,2) = 0.00	 
y(0,1,3) = 0.00	 y(1,0,3) = 1.00	 
y(0,2,3) = 0.54	 y(2,0,3) = 0.46	 
y(0,3,3) = 0.00	 y(3,0,3) = 1.00	 
y(1,2,3) = 0.44	 y(2,1,3) = 0.56	 
y(1,3,3) = 0.90	 y(3,1,3) = 0.10	 
y(2,3,3) = 0.63	 y(3,2,3) = 0.37	 
obj:  0.9999999999999997
erro
[(1, 2), (1, 3), (0, 0), (3, 3), (3, 0), (2, 3), (2, 2), (1, 0), (0, 2), (0, 3)]
cliques:  0 mip: 0
iterações: 15 cortes cliques encontrados: 14 mip: 1075 objective:  35.0
Coin0506I Presolve 157 (-171) rows, 90 (-71) columns and 490 (-260) elements
Clp1000I sum of infeasibilities 1.79124e-08 - average 1.14092e-10, 0 fixed columns
Coin0506I Presolve 157 (0) rows, 90 (0) columns and 490 (0) elements
Clp0029I End of values pass after 90 iterations
Clp0000I Optimal - objective value 29
Clp0000I Optimal - objective value 29
Coin0511I After Postsolve, objective 29, infeasibilities - dual 0 (0), primal 0 (0)
Clp0000I Optimal - objective value 29
Clp0000I Optimal - objective value 29
Clp0000I Optimal - objective value 29
Coin0511I After Postsolve, objective 29, infeasibilities - dual 0 (0), primal 0 (0)
Clp0032I Optimal objective 29 - 0 iterations time 0.022, Presolve 0.00, Idiot 0.01
Coin3009W Conflict graph built in 0.000 seconds, density: 0.070%
